data/results/2026_03_24_16_33_16_set_vm-3-t2_vm-3-t2_s029_g001_max.sol
# Objective value = 44
c_n0n2n19n28n38 5
c_n2n19n28n38 3
c_n0n19n28n38 3
c_n0n2n28n38 4
c_n0n2n19n38 4
c_n0n2n19n28 3
c_n19n28n38 2
c_n2n28n38 2
c_n2n19n38 2
c_n2n19n28 2
c_n0n28n38 3
c_n0n19n38 2
c_n0n19n28 1
c_n0n2n38 3
c_n0n2n28 2
c_n0n2n19 3
y_n0n1 1
y_n1n2 0
y_n0n2 1
y_n1n3 1
y_n0n3 1
y_n1n4 1
y_n0n4 1
y_n1n5 1
y_n0n5 1
y_n1n6 1
y_n0n6 1
y_n1n7 1
y_n0n7 1
y_n1n8 1
y_n0n8 1
y_n1n9 1
y_n0n9 1
y_n1n10 1
y_n0n10 1
y_n1n11 1
y_n0n11 1
y_n1n12 1
y_n0n12 1
y_n1n13 1
y_n0n13 1
y_n1n14 1
y_n0n14 1
y_n1n15 1
y_n0n15 1
y_n1n16 1
y_n0n16 1
y_n1n17 1
y_n0n17 1
y_n1n18 1
y_n0n18 1
y_n1n19 0
y_n0n19 1
y_n1n20 1
y_n0n20 1
y_n1n21 1
y_n0n21 1
y_n1n22 1
y_n0n22 1
y_n1n23 0
y_n0n23 1
y_n1n24 0
y_n0n24 1
y_n1n25 0
y_n0n25 0
y_n1n26 0
y_n0n26 1
y_n1n27 0
y_n0n27 0
y_n1n28 0
y_n0n28 0
y_n1n29 0
y_n0n29 1
y_n1n30 0
y_n0n30 0
y_n1n31 0
y_n0n31 0
y_n1n32 0
y_n0n32 0
y_n1n33 0
y_n0n33 0
y_n1n34 0
y_n0n34 0
y_n1n35 0
y_n0n35 0
y_n1n36 0
y_n0n36 0
y_n1n37 0
y_n0n37 0
y_n1n38 0
y_n0n38 0
y_n2n3 1
y_n2n4 1
y_n2n5 1
y_n2n6 1
y_n2n7 1
y_n2n8 1
y_n2n9 1
y_n2n10 1
y_n2n11 1
y_n2n12 1
y_n2n13 1
y_n2n14 1
y_n2n15 1
y_n2n16 1
y_n2n17 1
y_n2n18 1
y_n2n19 1
y_n2n20 1
y_n2n21 1
y_n2n22 1
y_n2n23 1
y_n2n24 1
y_n2n25 0
y_n2n26 1
y_n2n27 0
y_n2n28 0
y_n2n29 1
y_n2n30 0
y_n2n31 0
y_n2n32 0
y_n2n33 0
y_n2n34 0
y_n2n35 0
y_n2n36 0
y_n2n37 0
y_n2n38 0
y_n3n4 0
y_n3n5 0
y_n3n6 0
y_n3n7 0
y_n3n8 0
y_n3n9 0
y_n3n10 0
y_n3n11 0
y_n3n12 0
y_n3n13 0
y_n3n14 0
y_n3n15 0
y_n3n16 0
y_n3n17 0
y_n3n18 0
y_n3n19 0
y_n3n20 0
y_n3n21 0
y_n3n22 0
y_n3n23 0
y_n3n24 0
y_n3n25 0
y_n3n26 0
y_n3n27 0
y_n3n28 0
y_n3n29 0
y_n3n30 0
y_n3n31 0
y_n3n32 0
y_n3n33 0
y_n3n34 0
y_n3n35 0
y_n3n36 0
y_n3n37 0
y_n3n38 0
y_n4n5 0
y_n4n6 0
y_n4n7 0
y_n4n8 0
y_n4n9 0
y_n4n10 0
y_n4n11 0
y_n4n12 0
y_n4n13 0
y_n4n14 0
y_n4n15 0
y_n4n16 0
y_n4n17 0
y_n4n18 0
y_n4n19 0
y_n4n20 0
y_n4n21 0
y_n4n22 0
y_n4n23 0
y_n4n24 0
y_n4n25 0
y_n4n26 0
y_n4n27 0
y_n4n28 0
y_n4n29 0
y_n4n30 0
y_n4n31 0
y_n4n32 0
y_n4n33 0
y_n4n34 0
y_n4n35 0
y_n4n36 0
y_n4n37 0
y_n4n38 0
y_n5n6 0
y_n5n7 0
y_n5n8 0
y_n5n9 0
y_n5n10 0
y_n5n11 0
y_n5n12 0
y_n5n13 0
y_n5n14 0
y_n5n15 0
y_n5n16 0
y_n5n17 0
y_n5n18 0
y_n5n19 0
y_n5n20 0
y_n5n21 0
y_n5n22 0
y_n5n23 0
y_n5n24 0
y_n5n25 0
y_n5n26 0
y_n5n27 0
y_n5n28 0
y_n5n29 0
y_n5n30 0
y_n5n31 0
y_n5n32 0
y_n5n33 0
y_n5n34 0
y_n5n35 0
y_n5n36 0
y_n5n37 0
y_n5n38 0
y_n6n7 0
y_n6n8 0
y_n6n9 0
y_n6n10 0
y_n6n11 0
y_n6n12 0
y_n6n13 0
y_n6n14 0
y_n6n15 0
y_n6n16 0
y_n6n17 0
y_n6n18 0
y_n6n19 0
y_n6n20 0
y_n6n21 0
y_n6n22 0
y_n6n23 0
y_n6n24 0
y_n6n25 0
y_n6n26 0
y_n6n27 0
y_n6n28 0
y_n6n29 0
y_n6n30 0
y_n6n31 0
y_n6n32 0
y_n6n33 0
y_n6n34 0
y_n6n35 0
y_n6n36 0
y_n6n37 0
y_n6n38 0
y_n7n8 0
y_n7n9 0
y_n7n10 0
y_n7n11 0
y_n7n12 0
y_n7n13 0
y_n7n14 0
y_n7n15 0
y_n7n16 0
y_n7n17 0
y_n7n18 0
y_n7n19 0
y_n7n20 0
y_n7n21 0
y_n7n22 0
y_n7n23 0
y_n7n24 0
y_n7n25 0
y_n7n26 0
y_n7n27 0
y_n7n28 0
y_n7n29 0
y_n7n30 0
y_n7n31 0
y_n7n32 0
y_n7n33 0
y_n7n34 0
y_n7n35 0
y_n7n36 0
y_n7n37 0
y_n7n38 0
y_n8n9 0
y_n8n10 0
y_n8n11 0
y_n8n12 0
y_n8n13 0
y_n8n14 0
y_n8n15 0
y_n8n16 0
y_n8n17 0
y_n8n18 0
y_n8n19 0
y_n8n20 0
y_n8n21 0
y_n8n22 0
y_n8n23 0
y_n8n24 0
y_n8n25 0
y_n8n26 0
y_n8n27 0
y_n8n28 0
y_n8n29 0
y_n8n30 0
y_n8n31 0
y_n8n32 0
y_n8n33 0
y_n8n34 0
y_n8n35 0
y_n8n36 0
y_n8n37 0
y_n8n38 0
y_n9n10 0
y_n9n11 0
y_n9n12 0
y_n9n13 0
y_n9n14 0
y_n9n15 0
y_n9n16 0
y_n9n17 0
y_n9n18 0
y_n9n19 0
y_n9n20 0
y_n9n21 0
y_n9n22 0
y_n9n23 0
y_n9n24 0
y_n9n25 0
y_n9n26 0
y_n9n27 0
y_n9n28 0
y_n9n29 0
y_n9n30 0
y_n9n31 0
y_n9n32 0
y_n9n33 0
y_n9n34 0
y_n9n35 0
y_n9n36 0
y_n9n37 0
y_n9n38 0
y_n10n11 0
y_n10n12 0
y_n10n13 0
y_n10n14 0
y_n10n15 0
y_n10n16 0
y_n10n17 0
y_n10n18 0
y_n10n19 0
y_n10n20 0
y_n10n21 0
y_n10n22 0
y_n10n23 0
y_n10n24 0
y_n10n25 0
y_n10n26 0
y_n10n27 0
y_n10n28 0
y_n10n29 0
y_n10n30 0
y_n10n31 0
y_n10n32 0
y_n10n33 0
y_n10n34 0
y_n10n35 0
y_n10n36 0
y_n10n37 0
y_n10n38 0
y_n11n12 0
y_n11n13 0
y_n11n14 0
y_n11n15 0
y_n11n16 0
y_n11n17 0
y_n11n18 0
y_n11n19 0
y_n11n20 0
y_n11n21 0
y_n11n22 0
y_n11n23 0
y_n11n24 0
y_n11n25 0
y_n11n26 0
y_n11n27 0
y_n11n28 0
y_n11n29 0
y_n11n30 0
y_n11n31 0
y_n11n32 0
y_n11n33 0
y_n11n34 0
y_n11n35 0
y_n11n36 0
y_n11n37 0
y_n11n38 0
y_n12n13 0
y_n12n14 0
y_n12n15 0
y_n12n16 0
y_n12n17 0
y_n12n18 0
y_n12n19 0
y_n12n20 0
y_n12n21 0
y_n12n22 0
y_n12n23 0
y_n12n24 0
y_n12n25 0
y_n12n26 0
y_n12n27 0
y_n12n28 0
y_n12n29 0
y_n12n30 0
y_n12n31 0
y_n12n32 0
y_n12n33 0
y_n12n34 0
y_n12n35 0
y_n12n36 0
y_n12n37 0
y_n12n38 0
y_n13n14 0
y_n13n15 0
y_n13n16 0
y_n13n17 0
y_n13n18 0
y_n13n19 0
y_n13n20 0
y_n13n21 0
y_n13n22 0
y_n13n23 0
y_n13n24 0
y_n13n25 0
y_n13n26 0
y_n13n27 0
y_n13n28 0
y_n13n29 0
y_n13n30 0
y_n13n31 0
y_n13n32 0
y_n13n33 0
y_n13n34 0
y_n13n35 0
y_n13n36 0
y_n13n37 0
y_n13n38 0
y_n14n15 0
y_n14n16 0
y_n14n17 0
y_n14n18 0
y_n14n19 0
y_n14n20 0
y_n14n21 0
y_n14n22 0
y_n14n23 0
y_n14n24 0
y_n14n25 0
y_n14n26 0
y_n14n27 0
y_n14n28 0
y_n14n29 0
y_n14n30 0
y_n14n31 0
y_n14n32 0
y_n14n33 0
y_n14n34 0
y_n14n35 0
y_n14n36 0
y_n14n37 0
y_n14n38 0
y_n15n16 0
y_n15n17 0
y_n15n18 0
y_n15n19 0
y_n15n20 0
y_n15n21 0
y_n15n22 0
y_n15n23 0
y_n15n24 0
y_n15n25 0
y_n15n26 0
y_n15n27 0
y_n15n28 0
y_n15n29 0
y_n15n30 0
y_n15n31 0
y_n15n32 0
y_n15n33 0
y_n15n34 0
y_n15n35 0
y_n15n36 0
y_n15n37 0
y_n15n38 0
y_n16n17 0
y_n16n18 0
y_n16n19 0
y_n16n20 0
y_n16n21 0
y_n16n22 0
y_n16n23 0
y_n16n24 0
y_n16n25 0
y_n16n26 0
y_n16n27 0
y_n16n28 0
y_n16n29 0
y_n16n30 0
y_n16n31 0
y_n16n32 0
y_n16n33 0
y_n16n34 0
y_n16n35 0
y_n16n36 0
y_n16n37 0
y_n16n38 0
y_n17n18 0
y_n17n19 0
y_n17n20 0
y_n17n21 0
y_n17n22 0
y_n17n23 0
y_n17n24 0
y_n17n25 0
y_n17n26 0
y_n17n27 0
y_n17n28 0
y_n17n29 0
y_n17n30 0
y_n17n31 0
y_n17n32 0
y_n17n33 0
y_n17n34 0
y_n17n35 0
y_n17n36 0
y_n17n37 0
y_n17n38 0
y_n18n19 0
y_n18n20 0
y_n18n21 0
y_n18n22 0
y_n18n23 0
y_n18n24 0
y_n18n25 0
y_n18n26 0
y_n18n27 0
y_n18n28 0
y_n18n29 0
y_n18n30 0
y_n18n31 0
y_n18n32 0
y_n18n33 0
y_n18n34 0
y_n18n35 0
y_n18n36 0
y_n18n37 0
y_n18n38 0
y_n19n20 1
y_n19n21 1
y_n19n22 1
y_n19n23 1
y_n19n24 1
y_n19n25 0
y_n19n26 1
y_n19n27 0
y_n19n28 0
y_n19n29 1
y_n19n30 0
y_n19n31 0
y_n19n32 0
y_n19n33 0
y_n19n34 0
y_n19n35 0
y_n19n36 0
y_n19n37 0
y_n19n38 0
y_n20n21 0
y_n20n22 0
y_n20n23 0
y_n20n24 0
y_n20n25 0
y_n20n26 0
y_n20n27 0
y_n20n28 0
y_n20n29 0
y_n20n30 0
y_n20n31 0
y_n20n32 0
y_n20n33 0
y_n20n34 0
y_n20n35 0
y_n20n36 0
y_n20n37 0
y_n20n38 0
y_n21n22 0
y_n21n23 0
y_n21n24 0
y_n21n25 0
y_n21n26 0
y_n21n27 0
y_n21n28 0
y_n21n29 0
y_n21n30 0
y_n21n31 0
y_n21n32 0
y_n21n33 0
y_n21n34 0
y_n21n35 0
y_n21n36 0
y_n21n37 0
y_n21n38 0
y_n22n23 0
y_n22n24 0
y_n22n25 0
y_n22n26 0
y_n22n27 0
y_n22n28 0
y_n22n29 0
y_n22n30 0
y_n22n31 0
y_n22n32 0
y_n22n33 0
y_n22n34 0
y_n22n35 0
y_n22n36 0
y_n22n37 0
y_n22n38 0
y_n23n24 0
y_n23n25 0
y_n23n26 0
y_n23n27 0
y_n23n28 0
y_n23n29 0
y_n23n30 0
y_n23n31 0
y_n23n32 0
y_n23n33 0
y_n23n34 0
y_n23n35 0
y_n23n36 0
y_n23n37 0
y_n23n38 0
y_n24n25 0
y_n24n26 0
y_n24n27 0
y_n24n28 0
y_n24n29 0
y_n24n30 0
y_n24n31 0
y_n24n32 0
y_n24n33 0
y_n24n34 0
y_n24n35 0
y_n24n36 0
y_n24n37 0
y_n24n38 0
y_n25n26 1
y_n25n27 0
y_n25n28 1
y_n25n29 1
y_n25n30 0
y_n25n31 0
y_n25n32 0
y_n25n33 0
y_n25n34 0
y_n25n35 0
y_n25n36 0
y_n25n37 0
y_n25n38 1
y_n26n27 0
y_n26n28 0
y_n26n29 0
y_n26n30 0
y_n26n31 0
y_n26n32 0
y_n26n33 0
y_n26n34 0
y_n26n35 0
y_n26n36 0
y_n26n37 0
y_n26n38 0
y_n27n28 1
y_n27n29 1
y_n27n30 0
y_n27n31 0
y_n27n32 0
y_n27n33 0
y_n27n34 0
y_n27n35 0
y_n27n36 0
y_n27n37 0
y_n27n38 1
y_n28n29 1
y_n28n30 0
y_n28n31 0
y_n28n32 0
y_n28n33 0
y_n28n34 0
y_n28n35 0
y_n28n36 0
y_n28n37 0
y_n28n38 1
y_n29n30 0
y_n29n31 0
y_n29n32 0
y_n29n33 0
y_n29n34 0
y_n29n35 0
y_n29n36 0
y_n29n37 0
y_n29n38 0
y_n30n31 0
y_n30n32 0
y_n30n33 0
y_n30n34 0
y_n30n35 0
y_n30n36 0
y_n30n37 0
y_n30n38 1
y_n31n32 0
y_n31n33 0
y_n31n34 0
y_n31n35 0
y_n31n36 0
y_n31n37 0
y_n31n38 1
y_n32n33 0
y_n32n34 0
y_n32n35 0
y_n32n36 0
y_n32n37 0
y_n32n38 1
y_n33n34 0
y_n33n35 0
y_n33n36 0
y_n33n37 0
y_n33n38 1
y_n34n35 0
y_n34n36 0
y_n34n37 0
y_n34n38 1
y_n35n36 0
y_n35n37 0
y_n35n38 1
y_n36n37 0
y_n36n38 1
y_n37n38 1
pos_n0 12
pos_n1 19
pos_n2 13
pos_n3 38
pos_n4 37
pos_n5 36
pos_n6 35
pos_n7 34
pos_n8 33
pos_n9 32
pos_n10 31
pos_n11 30
pos_n12 29
pos_n13 28
pos_n14 27
pos_n15 26
pos_n16 25
pos_n17 24
pos_n18 23
pos_n19 14
pos_n20 22
pos_n21 21
pos_n22 20
pos_n23 18
pos_n24 17
pos_n25 9
pos_n26 16
pos_n27 8
pos_n28 10
pos_n29 15
pos_n30 7
pos_n31 6
pos_n32 5
pos_n33 4
pos_n34 3
pos_n35 2
pos_n36 1
pos_n37 0
pos_n38 11
z_n19n38 0
z_n2n19 1
z_n19n28 0
z_n2n38 0
z_n28n38 1
z_n2n28 0
z_n3n36 0
z_n0n19 0
z_n0n38 1
z_n0n28 0
z_n1n29 0
z_n20n29 0
z_n14n31 0
z_n14n20 0
z_n7n14 0
z_n20n31 0
z_n7n31 0
z_n7n20 0
z_n5n16 0
z_n8n16 0
z_n5n8 0
z_n7n9 0
z_n8n10 0
z_n9n24 0
z_n11n24 0
z_n9n11 0
z_n10n12 0
z_n11n13 0
z_n12n35 0
z_n17n35 0
z_n15n21 0
z_n34n36 0
z_n0n2 1
z_n0n6 0
z_n0n34 0
z_n6n38 0
z_n34n38 0
z_n2n6 0
z_n2n34 0
z_n6n28 0
z_n28n34 0
z_n6n34 0
z_n4n5 0
z_n17n22 0
z_n21n25 0
z_n10n23 0
z_n10n26 0
z_n23n26 0
z_n22n27 0
z_n25n32 0
z_n3n4 0
z_n27n37 0
z_n18n19 0
z_n13n15 0
z_n18n30 0
z_n18n33 0
z_n1n18 0
z_n30n33 0
z_n1n30 0
z_n1n33 0
